(set-option :print-success false)
(set-logic QF_UF)
(declare-sort x19 0)
(declare-sort x144 0)
(declare-fun x123 () x144)
(declare-fun x159 (x144 x144) x144)
(declare-fun x41 () x144)
(declare-fun x6 () x144)
(declare-fun x78 () x144)
(declare-fun x77 () x144)
(declare-fun x56 (x144 x144) x144)
(assert (and (or (or (or (or (= (x159 (x159 x41 x123) x41) x123) (= x78 (x159 (x159 x41 x78) x41))) (= (x159 (x159 x41 x77) x41) x77)) (= x6 (x159 (x159 x41 x6) x41))) (= (x159 (x159 x41 x41) x41) x41)) (and (or (= (x159 (x159 x6 x41) x6) x41) (or (or (= (x159 (x159 x6 x77) x6) x77) (or (= x123 (x159 (x159 x6 x123) x6)) (= x78 (x159 (x159 x6 x78) x6)))) (= x6 (x159 (x159 x6 x6) x6)))) (and (and (or (= x41 (x159 (x159 x123 x41) x123)) (or (= x6 (x159 (x159 x123 x6) x123)) (or (= x77 (x159 (x159 x123 x77) x123)) (or (= x78 (x159 (x159 x123 x78) x123)) (= x123 (x159 (x159 x123 x123) x123)))))) (or (or (= (x159 (x159 x78 x6) x78) x6) (or (= x77 (x159 (x159 x78 x77) x78)) (or (= x123 (x159 (x159 x78 x123) x78)) (= (x159 (x159 x78 x78) x78) x78)))) (= (x159 (x159 x78 x41) x78) x41))) (or (or (or (= x77 (x159 (x159 x77 x77) x77)) (or (= (x159 (x159 x77 x123) x77) x123) (= (x159 (x159 x77 x78) x77) x78))) (= (x159 (x159 x77 x6) x77) x6)) (= (x159 (x159 x77 x41) x77) x41))))))
(assert (let ((x128 (x159 x123 x123)) (x134 (x159 x6 x123)) (x88 (x159 x6 x77)) (x81 (x159 x78 x123)) (x101 (x159 x78 x78)) (x28 (x159 x41 x6)) (x92 (x159 x77 x78)) (x157 (x159 x123 x6)) (x87 (x159 x77 x6)) (x127 (x159 x41 x78)) (x12 (x159 x77 x41)) (x116 (x159 x123 x41)) (x26 (x159 x41 x77)) (x133 (x159 x77 x77)) (x142 (x159 x41 x41)) (x107 (x159 x6 x41)) (x149 (x159 x78 x77)) (x64 (x159 x123 x77)) (x72 (x159 x6 x6)) (x67 (x159 x77 x123)) (x145 (x159 x78 x6)) (x120 (x159 x123 x78)) (x111 (x159 x41 x123)) (x60 (x159 x78 x41)) (x50 (x159 x6 x78))) (let ((x62 (not (= x78 x92))) (x115 (not (= x78 x157))) (x22 (not (= x127 x41))) (x110 (not (= x123 x64))) (x129 (not (= x120 x123))) (x39 (not (= x77 x26))) (x83 (not (= x120 x78))) (x57 (not (= x78 x28))) (x98 (not (= x88 x78))) (x97 (not (= x145 x6))) (x117 (not (= x128 x123))) (x82 (not (= x77 x142))) (x153 (not (= x26 x6))) (x135 (not (= x123 x60))) (x63 (not (= x26 x78))) (x151 (not (= x87 x123))) (x79 (not (= x123 x50))) (x58 (not (= x12 x78))) (x34 (not (= x64 x77))) (x37 (not (= x123 x101))) (x156 (not (= x77 x60))) (x35 (not (= x77 x88))) (x32 (not (= x149 x6))) (x15 (not (= x128 x6))) (x154 (not (= x28 x41))) (x132 (not (= x134 x78))) (x31 (not (= x123 x72))) (x59 (not (= x92 x77))) (x30 (not (= x133 x77))) (x13 (not (= x88 x6))) (x141 (not (= x101 x41))) (x24 (not (= x64 x78))) (x23 (not (= x101 x78))) (x103 (not (= x78 x127))) (x36 (not (= x134 x77))) (x89 (not (= x77 x116))) (x10 (not (= x77 x12))) (x16 (not (= x123 x88))) (x46 (not (= x101 x77))) (x65 (not (= x128 x41))) (x94 (not (= x120 x77))) (x69 (not (= x101 x6))) (x84 (not (= x78 x145))) (x85 (not (= x145 x77))) (x150 (not (= x6 x111))) (x152 (not (= x50 x41))) (x33 (not (= x133 x78))) (x130 (not (= x6 x116))) (x14 (not (= x111 x123))) (x108 (not (= x142 x123))) (x122 (not (= x77 x81))) (x49 (not (= x107 x6))) (x96 (not (= x60 x41))) (x4 (not (= x64 x6))) (x52 (not (= x78 x142))) (x80 (not (= x107 x77))) (x55 (not (= x149 x41))) (x2 (not (= x77 x72))) (x9 (not (= x134 x123))) (x106 (not (= x77 x67))) (x43 (not (= x123 x127))) (x112 (not (= x123 x157))) (x136 (not (= x6 x67))) (x102 (not (= x41 x120))) (x131 (not (= x77 x127))) (x109 (not (= x67 x123))) (x42 (not (= x78 x111))) (x91 (not (= x145 x41))) (x40 (not (= x78 x72))) (x104 (not (= x77 x128))) (x76 (not (= x41 x116))) (x95 (not (= x6 x133))) (x3 (not (= x41 x64))) (x90 (not (= x67 x41))) (x54 (not (= x134 x41))) (x126 (not (= x41 x142))) (x139 (not (= x41 x81))) (x51 (not (= x6 x142))) (x93 (not (= x149 x78))) (x48 (not (= x6 x28))) (x20 (not (= x50 x6))) (x29 (not (= x6 x87))) (x44 (not (= x111 x41))) (x143 (not (= x28 x77))) (x66 (not (= x41 x92))) (x11 (not (= x127 x6))) (x147 (not (= x123 x12))) (x105 (not (= x157 x6))) (x114 (not (= x12 x41))) (x113 (not (= x123 x133))) (x119 (not (= x6 x81))) (x121 (not (= x123 x116))) (x99 (not (= x78 x60))) (x146 (not (= x149 x77))) (x100 (not (= x77 x111))) (x38 (not (= x149 x123))) (x138 (not (= x145 x123))) (x75 (not (= x72 x6))) (x18 (not (= x41 x26))) (x70 (not (= x87 x78))) (x27 (not (= x28 x123))) (x137 (not (= x77 x87))) (x74 (not (= x92 x123))) (x140 (not (= x77 x50))) (x71 (not (= x88 x41))) (x45 (not (= x60 x6))) (x86 (not (= x78 x50))) (x17 (not (= x78 x107))) (x118 (not (= x6 x134))) (x53 (not (= x41 x133))) (x21 (not (= x123 x26))) (x61 (not (= x157 x41))) (x148 (not (= x78 x116))) (x124 (not (= x123 x81))) (x5 (not (= x157 x77))) (x73 (not (= x78 x81))) (x68 (not (= x12 x6))) (x125 (not (= x123 x107))) (x8 (not (= x78 x67))) (x1 (not (= x78 x128))) (x155 (not (= x41 x72))) (x25 (not (= x107 x41))) (x47 (not (= x6 x92))) (x7 (not (= x87 x41))) (x158 (not (= x6 x120)))) (or (and (and (and (or x154 x25) (and (or x18 x114) (and (or x22 x96) (or x76 x44)))) (or x126 x126)) (and (and (and (and (or x7 x71) (and (and (or x66 x55) (or x90 x3)) (or x53 x53))) (or x18 x114)) (and (and (or x22 x96) (and (and (and (or x141 x141) (or x139 x102)) (or x66 x55)) (or x152 x91))) (and (or x76 x44) (and (or x61 x54) (and (and (or x102 x139) (or x65 x65)) (or x3 x90)))))) (and (or x154 x25) (and (or x155 x155) (and (and (or x61 x54) (or x91 x152)) (or x71 x7)))))) (or (or (or (and (and (and (or x17 x57) (and (and (or x98 x70) (and (or x132 x115) (or x84 x86))) (or x40 x40))) (and (and (and (or x99 x103) (and (and (and (or x23 x23) (or x83 x73)) (or x62 x93)) (or x86 x84))) (and (and (and (or x8 x24) (and (or x1 x1) (or x73 x83))) (or x115 x132)) (or x42 x148))) (and (and (or x98 x70) (and (and (or x8 x24) (or x62 x93)) (or x33 x33))) (or x58 x63)))) (and (or x52 x52) (and (and (or x58 x63) (and (or x103 x99) (or x42 x148))) (or x17 x57)))) (and (and (and (and (and (and (or x79 x138) (and (and (or x37 x37) (or x129 x124)) (or x38 x74))) (or x135 x43)) (and (and (and (and (or x117 x117) (or x124 x129)) (or x109 x110)) (or x112 x9)) (or x14 x121))) (and (or x21 x147) (and (and (or x113 x113) (and (or x74 x38) (or x109 x110))) (or x16 x151)))) (and (or x125 x27) (and (and (or x16 x151) (and (or x112 x9) (or x79 x138))) (or x31 x31)))) (and (or x108 x108) (and (and (or x21 x147) (and (or x14 x121) (or x43 x135))) (or x125 x27))))) (and (and (and (or x143 x80) (and (or x10 x39) (and (or x156 x131) (or x100 x89)))) (or x82 x82)) (and (and (and (or x10 x39) (and (and (and (or x34 x106) (or x59 x146)) (or x30 x30)) (or x137 x35))) (and (and (or x131 x156) (and (and (or x146 x59) (and (or x94 x122) (or x46 x46))) (or x85 x140))) (and (or x89 x100) (and (or x5 x36) (and (and (or x104 x104) (or x94 x122)) (or x34 x106)))))) (and (or x143 x80) (and (and (and (or x85 x140) (or x5 x36)) (or x35 x137)) (or x2 x2)))))) (and (and (and (or x48 x49) (and (or x75 x75) (and (or x29 x13) (and (or x105 x118) (or x97 x20))))) (and (and (and (and (or x118 x105) (and (and (or x158 x119) (or x15 x15)) (or x4 x136))) (or x130 x150)) (and (and (or x20 x97) (and (and (or x119 x158) (or x69 x69)) (or x47 x32))) (or x11 x45))) (and (or x153 x68) (and (or x13 x29) (and (or x95 x95) (and (or x32 x47) (or x136 x4))))))) (and (and (and (or x68 x153) (and (or x130 x150) (or x45 x11))) (or x49 x48)) (or x51 x51))))))))
(assert (let ((x115 (x159 x77 x77)) (x17 (x159 x6 x41)) (x62 (x159 x41 x78)) (x98 (x159 x6 x77)) (x57 (x159 x77 x41)) (x33 (x159 x6 x123)) (x103 (x159 x123 x6)) (x73 (x159 x77 x78)) (x84 (x159 x78 x77)) (x132 (x159 x123 x77)) (x40 (x159 x78 x6)) (x58 (x159 x123 x41)) (x93 (x159 x78 x123)) (x42 (x159 x6 x6)) (x70 (x159 x41 x77)) (x99 (x159 x77 x6)) (x24 (x159 x77 x123)) (x1 (x159 x6 x78)) (x83 (x159 x123 x78)) (x63 (x159 x78 x41)) (x86 (x159 x41 x123)) (x8 (x159 x123 x123)) (x23 (x159 x78 x78)) (x148 (x159 x41 x6)) (x52 (x159 x41 x41))) (and (or (or (or (or (= x78 (x159 x63 x63)) (= (x159 x58 x58) x123)) (= x77 (x159 x57 x57))) (= x6 (x159 x17 x17))) (= (x159 x52 x52) x41)) (and (or (or (or (= x77 (x159 x99 x99)) (or (= (x159 x103 x103) x123) (= (x159 x40 x40) x78))) (= x6 (x159 x42 x42))) (= (x159 x148 x148) x41)) (and (and (or (or (or (or (= x123 (x159 x8 x8)) (= (x159 x93 x93) x78)) (= (x159 x24 x24) x77)) (= (x159 x33 x33) x6)) (= x41 (x159 x86 x86))) (or (or (or (= (x159 x73 x73) x77) (or (= (x159 x83 x83) x123) (= (x159 x23 x23) x78))) (= (x159 x1 x1) x6)) (= x41 (x159 x62 x62)))) (or (or (or (= x77 (x159 x115 x115)) (or (= (x159 x132 x132) x123) (= x78 (x159 x84 x84)))) (= x6 (x159 x98 x98))) (= x41 (x159 x70 x70))))))))
(assert (and (and (and (= x77 (x159 x6 x123)) (= x78 (x159 x123 x123))) (= (x159 x78 x41) x6)) (= (x159 x78 x123) x41)))
(assert (and (and (and (= (x159 x77 (x159 x77 x77)) x77) (and (= x78 (x159 x78 (x159 x78 x78))) (= x123 (x159 x123 (x159 x123 x123))))) (= x6 (x159 x6 (x159 x6 x6)))) (= x41 (x159 x41 (x159 x41 x41)))))
(assert (let ((x132 (x159 x77 x123)) (x99 (x159 x6 x77)) (x24 (x159 x123 x77)) (x103 (x159 x6 x123)) (x148 (x159 x6 x41)) (x62 (x159 x78 x41)) (x86 (x159 x123 x41)) (x115 (x159 x77 x77)) (x63 (x159 x41 x78)) (x84 (x159 x77 x78)) (x1 (x159 x78 x6)) (x98 (x159 x77 x6)) (x42 (x159 x6 x6)) (x58 (x159 x41 x123)) (x40 (x159 x6 x78)) (x17 (x159 x41 x6)) (x70 (x159 x77 x41)) (x23 (x159 x78 x78)) (x93 (x159 x123 x78)) (x33 (x159 x123 x6)) (x57 (x159 x41 x77)) (x73 (x159 x78 x77)) (x8 (x159 x123 x123)) (x83 (x159 x78 x123)) (x52 (x159 x41 x41))) (and (and (and (and (and (and (and (and (or (or (or (= x23 x77) (or (= x23 x123) (= x23 x78))) (= x6 x23)) (= x23 x41)) (or (= x83 x41) (or (= x6 x83) (or (= x83 x77) (or (= x83 x78) (= x123 x83)))))) (or (or (or (= x73 x77) (or (= x73 x123) (= x78 x73))) (= x6 x73)) (= x41 x73))) (or (or (or (= x77 x1) (or (= x1 x78) (= x1 x123))) (= x1 x6)) (= x1 x41))) (or (= x62 x41) (or (or (= x77 x62) (or (= x123 x62) (= x78 x62))) (= x62 x6)))) (and (or (= x86 x41) (or (= x6 x86) (or (or (= x86 x123) (= x86 x78)) (= x77 x86)))) (and (and (or (or (= x6 x24) (or (= x77 x24) (or (= x24 x123) (= x78 x24)))) (= x41 x24)) (and (or (= x41 x8) (or (= x6 x8) (or (= x77 x8) (or (= x8 x78) (= x8 x123))))) (or (= x93 x41) (or (= x93 x6) (or (= x93 x77) (or (= x93 x78) (= x123 x93))))))) (or (or (= x6 x33) (or (= x77 x33) (or (= x123 x33) (= x78 x33)))) (= x33 x41))))) (and (or (or (or (= x77 x70) (or (= x78 x70) (= x70 x123))) (= x70 x6)) (= x41 x70)) (and (or (= x98 x41) (or (= x6 x98) (or (= x98 x77) (or (= x123 x98) (= x78 x98))))) (and (or (or (= x6 x115) (or (or (= x115 x123) (= x78 x115)) (= x115 x77))) (= x115 x41)) (and (or (or (or (or (= x132 x123) (= x132 x78)) (= x77 x132)) (= x132 x6)) (= x41 x132)) (or (= x41 x84) (or (or (= x84 x77) (or (= x123 x84) (= x84 x78))) (= x6 x84)))))))) (and (and (and (and (or (or (= x6 x103) (or (= x77 x103) (or (= x103 x78) (= x123 x103)))) (= x103 x41)) (or (or (= x6 x40) (or (= x40 x77) (or (= x40 x78) (= x40 x123)))) (= x41 x40))) (or (= x99 x41) (or (= x99 x6) (or (or (= x99 x123) (= x78 x99)) (= x77 x99))))) (or (= x42 x41) (or (or (or (= x42 x123) (= x42 x78)) (= x77 x42)) (= x42 x6)))) (or (= x148 x41) (or (or (= x77 x148) (or (= x148 x78) (= x123 x148))) (= x6 x148))))) (and (and (and (or (or (or (= x77 x57) (or (= x123 x57) (= x78 x57))) (= x6 x57)) (= x41 x57)) (and (or (or (= x6 x63) (or (= x63 x77) (or (= x63 x78) (= x63 x123)))) (= x41 x63)) (or (or (= x6 x58) (or (or (= x58 x78) (= x123 x58)) (= x77 x58))) (= x41 x58)))) (or (= x17 x41) (or (= x6 x17) (or (= x17 x77) (or (= x123 x17) (= x78 x17)))))) (or (= x52 x41) (or (or (or (= x123 x52) (= x52 x78)) (= x52 x77)) (= x6 x52)))))))
(assert (let ((x86 (x159 x41 x123)) (x62 (x159 x41 x78)) (x24 (x159 x77 x123)) (x99 (x159 x77 x6)) (x42 (x159 x6 x6)) (x33 (x159 x6 x123)) (x132 (x159 x123 x77)) (x83 (x159 x123 x78)) (x115 (x159 x77 x77)) (x1 (x159 x6 x78)) (x40 (x159 x78 x6)) (x73 (x159 x77 x78)) (x148 (x159 x41 x6)) (x57 (x159 x77 x41)) (x58 (x159 x123 x41)) (x93 (x159 x78 x123)) (x52 (x159 x41 x41)) (x8 (x159 x123 x123)) (x63 (x159 x78 x41)) (x84 (x159 x78 x77)) (x17 (x159 x6 x41)) (x98 (x159 x6 x77)) (x70 (x159 x41 x77)) (x23 (x159 x78 x78)) (x103 (x159 x123 x6))) (and (and (and (and (and (not (= x148 x70)) (and (and (and (not (= x70 x86)) (and (and (not (= x148 x62)) (and (not (= x70 x62)) (not (= x86 x62)))) (not (= x52 x62)))) (not (= x86 x148))) (not (= x86 x52)))) (not (= x52 x70))) (not (= x52 x148))) (and (and (and (not (= x57 x99)) (and (not (= x57 x115)) (and (and (and (and (not (= x24 x115)) (and (and (not (= x99 x73)) (and (not (= x24 x73)) (not (= x73 x115)))) (not (= x57 x73)))) (not (= x24 x99))) (not (= x24 x57))) (not (= x99 x115))))) (and (and (not (= x58 x103)) (and (and (and (and (not (= x8 x103)) (and (not (= x8 x132)) (and (not (= x83 x58)) (and (not (= x83 x103)) (and (not (= x83 x8)) (not (= x83 x132))))))) (not (= x58 x8))) (not (= x132 x103))) (not (= x58 x132)))) (and (and (and (and (not (= x93 x63)) (and (not (= x93 x40)) (and (not (= x84 x93)) (and (and (and (not (= x93 x23)) (not (= x84 x23))) (not (= x40 x23))) (not (= x23 x63)))))) (not (= x84 x40))) (not (= x84 x63))) (not (= x63 x40))))) (and (not (= x42 x17)) (and (and (not (= x42 x98)) (and (and (and (and (not (= x1 x17)) (and (not (= x1 x42)) (and (not (= x1 x33)) (not (= x1 x98))))) (not (= x98 x33))) (not (= x33 x42))) (not (= x17 x33)))) (not (= x98 x17)))))) (and (and (and (and (not (= x98 x70)) (and (not (= x115 x70)) (and (not (= x98 x115)) (and (and (not (= x98 x132)) (and (and (and (and (not (= x84 x132)) (not (= x84 x115))) (not (= x98 x84))) (not (= x70 x84))) (not (= x115 x132)))) (not (= x132 x70)))))) (and (and (not (= x33 x86)) (and (and (not (= x33 x24)) (and (not (= x8 x86)) (and (and (and (and (and (not (= x93 x24)) (not (= x93 x8))) (not (= x93 x33))) (not (= x93 x86))) (not (= x24 x8))) (not (= x33 x8))))) (not (= x86 x24)))) (and (and (and (and (not (= x62 x83)) (and (and (not (= x83 x73)) (and (not (= x23 x62)) (and (not (= x1 x23)) (and (not (= x23 x73)) (not (= x23 x83)))))) (not (= x1 x83)))) (not (= x73 x1))) (not (= x73 x62))) (not (= x62 x1))))) (and (not (= x42 x148)) (and (not (= x148 x99)) (and (and (and (not (= x103 x42)) (and (not (= x103 x99)) (and (and (and (not (= x40 x99)) (not (= x40 x103))) (not (= x42 x40))) (not (= x40 x148))))) (not (= x148 x103))) (not (= x99 x42)))))) (and (not (= x17 x52)) (and (not (= x52 x57)) (and (and (not (= x58 x52)) (and (not (= x17 x58)) (and (and (and (and (not (= x57 x63)) (not (= x58 x63))) (not (= x17 x63))) (not (= x63 x52))) (not (= x58 x57))))) (not (= x17 x57)))))))))
(assert (and (or (or (= (x159 x6 (x159 x41 x6)) x41) (or (or (= (x159 x78 (x159 x41 x78)) x41) (= x41 (x159 x123 (x159 x41 x123)))) (= x41 (x159 x77 (x159 x41 x77))))) (= (x159 x41 (x159 x41 x41)) x41)) (and (and (and (or (or (= x123 (x159 x6 (x159 x123 x6))) (or (or (= x123 (x159 x123 (x159 x123 x123))) (= x123 (x159 x78 (x159 x123 x78)))) (= x123 (x159 x77 (x159 x123 x77))))) (= x123 (x159 x41 (x159 x123 x41)))) (or (or (= (x159 x6 (x159 x78 x6)) x78) (or (or (= (x159 x123 (x159 x78 x123)) x78) (= (x159 x78 (x159 x78 x78)) x78)) (= x78 (x159 x77 (x159 x78 x77))))) (= (x159 x41 (x159 x78 x41)) x78))) (or (or (= (x159 x6 (x159 x77 x6)) x77) (or (= x77 (x159 x77 (x159 x77 x77))) (or (= x77 (x159 x123 (x159 x77 x123))) (= (x159 x78 (x159 x77 x78)) x77)))) (= x77 (x159 x41 (x159 x77 x41))))) (or (= x6 (x159 x41 (x159 x6 x41))) (or (= x6 (x159 x6 (x159 x6 x6))) (or (= (x159 x77 (x159 x6 x77)) x6) (or (= (x159 x78 (x159 x6 x78)) x6) (= (x159 x123 (x159 x6 x123)) x6))))))))
(assert (let ((x1 (x159 x6 x6)) (x62 (x159 x41 x41)) (x73 (x159 x77 x77)) (x83 (x159 x123 x123)) (x23 (x159 x78 x78))) (or (and (not (= x41 x62)) (and (not (= x1 x41)) (and (and (not (= x23 x41)) (not (= x41 x83))) (not (= x41 x73))))) (or (or (and (not (= x77 x62)) (and (and (and (not (= x77 x23)) (not (= x83 x77))) (not (= x77 x73))) (not (= x77 x1)))) (or (and (not (= x62 x123)) (and (and (not (= x73 x123)) (and (not (= x83 x123)) (not (= x123 x23)))) (not (= x1 x123)))) (and (and (and (not (= x78 x73)) (and (not (= x78 x23)) (not (= x83 x78)))) (not (= x1 x78))) (not (= x78 x62))))) (and (not (= x6 x62)) (and (not (= x1 x6)) (and (not (= x6 x73)) (and (not (= x23 x6)) (not (= x6 x83))))))))))
(assert (and (not (= x6 x41)) (and (not (= x77 x41)) (and (not (= x6 x77)) (and (not (= x41 x123)) (and (not (= x6 x123)) (and (and (and (and (not (= x78 x77)) (not (= x123 x78))) (not (= x78 x6))) (not (= x78 x41))) (not (= x77 x123)))))))))
(assert (or (and (and (and (not (= (x159 (x159 x77 x41) x41) x77)) (and (not (= x78 (x159 (x159 x78 x41) x41))) (not (= x123 (x159 (x159 x123 x41) x41))))) (not (= (x159 (x159 x6 x41) x41) x6))) (not (= (x159 (x159 x41 x41) x41) x41))) (or (or (or (and (not (= x41 (x159 (x159 x41 x78) x78))) (and (and (and (not (= x78 (x159 (x159 x78 x78) x78))) (not (= (x159 (x159 x123 x78) x78) x123))) (not (= (x159 (x159 x77 x78) x78) x77))) (not (= (x159 (x159 x6 x78) x78) x6)))) (and (not (= x41 (x159 (x159 x41 x123) x123))) (and (not (= x6 (x159 (x159 x6 x123) x123))) (and (and (not (= (x159 (x159 x78 x123) x123) x78)) (not (= x123 (x159 (x159 x123 x123) x123)))) (not (= x77 (x159 (x159 x77 x123) x123))))))) (and (not (= (x159 (x159 x41 x77) x77) x41)) (and (not (= x6 (x159 (x159 x6 x77) x77))) (and (not (= x77 (x159 (x159 x77 x77) x77))) (and (not (= x78 (x159 (x159 x78 x77) x77))) (not (= x123 (x159 (x159 x123 x77) x77)))))))) (and (and (not (= x6 (x159 (x159 x6 x6) x6))) (and (and (not (= x123 (x159 (x159 x123 x6) x6))) (not (= (x159 (x159 x78 x6) x6) x78))) (not (= x77 (x159 (x159 x77 x6) x6))))) (not (= (x159 (x159 x41 x6) x6) x41))))))
(assert (or (= (x159 x41 x41) x41) (or (= (x159 x6 x6) x6) (or (= (x159 x77 x77) x77) (or (= x123 (x159 x123 x123)) (= (x159 x78 x78) x78))))))
(assert (or (and (not (= x41 (x159 x41 x41))) (and (not (= (x159 x41 x6) x6)) (and (and (not (= (x159 x41 x123) x123)) (not (= (x159 x41 x78) x78))) (not (= x77 (x159 x41 x77)))))) (or (and (not (= x41 (x159 x6 x41))) (and (and (not (= (x159 x6 x77) x77)) (and (not (= (x159 x6 x123) x123)) (not (= (x159 x6 x78) x78)))) (not (= (x159 x6 x6) x6)))) (or (and (not (= (x159 x77 x41) x41)) (and (not (= (x159 x77 x6) x6)) (and (not (= (x159 x77 x77) x77)) (and (not (= (x159 x77 x123) x123)) (not (= (x159 x77 x78) x78)))))) (or (and (not (= (x159 x123 x41) x41)) (and (not (= x6 (x159 x123 x6))) (and (and (not (= x123 (x159 x123 x123))) (not (= x78 (x159 x123 x78)))) (not (= x77 (x159 x123 x77)))))) (and (not (= x41 (x159 x78 x41))) (and (not (= (x159 x78 x6) x6)) (and (and (not (= (x159 x78 x78) x78)) (not (= x123 (x159 x78 x123)))) (not (= (x159 x78 x77) x77))))))))))
(assert (not (and (= x78 (x159 x41 x41)) (and (= x6 (x159 x41 x6)) (and (and (and (and (= x123 (x159 x6 x41)) (and (and (and (= (x159 x6 x123) x77) (and (and (and (and (and (and (= (x159 x77 x78) x77) (and (= x77 (x159 x123 x41)) (and (and (and (= x78 (x159 x123 x123)) (and (= x123 (x159 x123 x78)) (and (= x6 (x159 x78 x41)) (and (= x77 (x159 x78 x6)) (and (and (= (x159 x78 x78) x78) (= (x159 x78 x123) x41)) (= x123 (x159 x78 x77))))))) (= x6 (x159 x123 x77))) (= x41 (x159 x123 x6))))) (= x6 (x159 x77 x123))) (= (x159 x77 x77) x78)) (= x123 (x159 x77 x6))) (= x41 (x159 x77 x41))) (= x6 (x159 x6 x78)))) (= x41 (x159 x6 x77))) (= x78 (x159 x6 x6)))) (= x41 (x159 x41 x78))) (= (x159 x41 x123) x123)) (= x77 (x159 x41 x77)))))))
(assert (let ((x58 (x159 x123 x41)) (x37 (x159 x41 x123)) (x34 (x159 x41 x6)) (x45 (x159 x41 x41)) (x62 (x159 x78 x6)) (x93 (x159 x78 x41)) (x116 (x159 x77 x77)) (x33 (x159 x77 x78)) (x73 (x159 x78 x123)) (x148 (x159 x123 x77)) (x83 (x159 x78 x78)) (x63 (x159 x123 x6)) (x1 (x159 x78 x77)) (x86 (x159 x6 x78)) (x94 (x159 x6 x6)) (x122 (x159 x6 x41)) (x133 (x159 x6 x77)) (x113 (x159 x41 x77)) (x74 (x159 x77 x41)) (x24 (x159 x123 x78)) (x84 (x159 x41 x78)) (x101 (x159 x6 x123)) (x42 (x159 x123 x123)) (x111 (x159 x77 x6)) (x52 (x159 x77 x123))) (let ((x50 (= x6 x42)) (x119 (= x41 x111)) (x151 (= x6 x116)) (x127 (= x41 x73)) (x40 (= x73 x78)) (x22 (= x84 x41)) (x65 (= x58 x77)) (x64 (= x78 x148)) (x87 (= x33 x77)) (x14 (= x101 x78)) (x61 (= x58 x6)) (x48 (= x123 x45)) (x118 (= x78 x122)) (x66 (= x74 x77)) (x142 (= x86 x123)) (x16 (= x6 x148)) (x39 (= x6 x111)) (x152 (= x6 x113)) (x15 (= x41 x94)) (x55 (= x77 x122)) (x106 (= x123 x94)) (x110 (= x123 x116)) (x158 (= x41 x63)) (x71 (= x6 x74)) (x109 (= x148 x123)) (x146 (= x111 x123)) (x11 (= x123 x34)) (x130 (= x123 x58)) (x5 (= x63 x77)) (x17 (= x42 x123)) (x21 (= x62 x78)) (x97 (= x74 x78)) (x149 (= x77 x42)) (x89 (= x63 x6)) (x131 (= x101 x6)) (x54 (= x93 x6)) (x31 (= x52 x41)) (x121 (= x78 x133)) (x117 (= x1 x78)) (x75 (= x123 x113)) (x27 (= x111 x78)) (x68 (= x122 x123)) (x23 (= x78 x83)) (x29 (= x37 x123)) (x25 (= x122 x41)) (x150 (= x93 x123)) (x105 (= x78 x45)) (x124 (= x78 x33)) (x9 (= x6 x52)) (x96 (= x37 x41)) (x28 (= x148 x41)) (x153 (= x123 x74)) (x12 (= x77 x1)) (x43 (= x116 x41)) (x85 (= x77 x133)) (x137 (= x94 x77)) (x10 (= x6 x94)) (x70 (= x24 x78)) (x100 (= x6 x62)) (x35 (= x111 x77)) (x103 (= x42 x78)) (x136 (= x113 x78)) (x26 (= x148 x77)) (x13 (= x84 x123)) (x128 (= x52 x78)) (x120 (= x73 x77)) (x125 (= x78 x94)) (x140 (= x101 x77)) (x132 (= x83 x77)) (x114 (= x58 x41)) (x107 (= x1 x41)) (x155 (= x6 x45)) (x115 (= x6 x83)) (x36 (= x62 x77)) (x47 (= x78 x84)) (x2 (= x86 x6)) (x51 (= x77 x37)) (x4 (= x34 x78)) (x57 (= x123 x73)) (x147 (= x78 x63)) (x108 (= x101 x123)) (x156 (= x6 x133)) (x81 (= x77 x24)) (x30 (= x77 x86)) (x53 (= x37 x6)) (x82 (= x133 x41)) (x98 (= x41 x83)) (x32 (= x78 x37)) (x143 (= x41 x86)) (x102 (= x34 x77)) (x154 (= x41 x74)) (x3 (= x6 x84)) (x134 (= x123 x52)) (x139 (= x77 x93)) (x157 (= x33 x123)) (x67 (= x116 x78)) (x18 (= x93 x41)) (x38 (= x1 x123)) (x138 (= x33 x6)) (x8 (= x123 x83)) (x20 (= x58 x78)) (x112 (= x1 x6)) (x60 (= x41 x24)) (x95 (= x78 x93)) (x79 (= x116 x77)) (x80 (= x41 x101)) (x46 (= x123 x133)) (x104 (= x62 x123)) (x91 (= x34 x6)) (x126 (= x41 x45)) (x76 (= x41 x34)) (x90 (= x45 x77)) (x92 (= x6 x24)) (x49 (= x77 x84)) (x141 (= x77 x113)) (x7 (= x6 x122)) (x99 (= x123 x24)) (x88 (= x52 x77)) (x129 (= x42 x41)) (x44 (= x41 x113)) (x72 (= x33 x41)) (x135 (= x78 x86)) (x69 (= x62 x41)) (x59 (= x63 x123)) (x145 (= x73 x6))) (and (and (and (and (and (and (and (or (or (or x138 (or x92 x115)) x2) x3) (or (or (or x112 (or x145 x115)) x100) x54)) (and (and (or (or x36 (or (or x120 x132) x12)) x139) (or (or x30 (or (or x132 x81) x87)) x49)) (and (and (or x150 (or x104 (or (or x8 x57) x38))) (or (or (or (or x8 x99) x157) x142) x13)) (and (or (or x135 (or x124 (or x70 x23))) x47) (or (or x21 (or (or x40 x23) x117)) x95))))) (and (or (or (or x107 (or x98 x127)) x69) x18) (or (or x143 (or (or x60 x98) x72)) x22))) (and (and (or (or x158 (or x28 (or x129 x60))) x114) (or (or (or (or x127 x129) x31) x80) x96)) (and (and (and (or (or x140 (or (or x149 x120) x88)) x51) (or (or (or (or x149 x81) x26) x5) x65)) (and (and (or (or (or x128 (or x40 x103)) x14) x32) (or (or (or x64 (or x70 x103)) x147) x20)) (and (or x130 (or x59 (or x109 (or x17 x99)))) (or x29 (or (or x134 (or x17 x57)) x108))))) (and (or x61 (or x89 (or (or x92 x50) x16))) (or x53 (or (or (or x50 x145) x9) x131)))))) (and (and (or (or (or x43 (or x28 x107)) x82) x44) (or (or x119 (or (or x31 x72) x43)) x154)) (and (and (and (and (or (or x46 (or (or x38 x109) x110)) x75) (or (or (or x110 (or x157 x134)) x146) x153)) (and (or x136 (or (or (or x117 x64) x67) x121)) (or (or (or (or x128 x124) x67) x27) x97))) (and (or x66 (or (or (or x88 x87) x79) x35)) (or (or x85 (or (or x12 x26) x79)) x141))) (and (or (or (or (or x112 x16) x151) x156) x152) (or (or (or x151 (or x138 x9)) x39) x71))))) (and (and (or (or (or x82 (or x80 x143)) x15) x25) (or x76 (or x15 (or (or x69 x158) x119)))) (and (and (and (or x55 (or x137 (or x85 (or x140 x30)))) (or (or (or x35 (or x36 x5)) x137) x102)) (and (and (or x68 (or x106 (or (or x142 x108) x46))) (or (or x106 (or x146 (or x59 x104))) x11)) (and (or x118 (or x125 (or x121 (or x135 x14)))) (or x4 (or (or x27 (or x21 x147)) x125))))) (and (or (or (or x156 (or x131 x2)) x10) x7) (or x91 (or x10 (or x39 (or x100 x89)))))))) (and (and (or x126 (or (or (or x114 x18) x154) x25)) (or x126 (or x76 (or (or x22 x96) x44)))) (and (and (or (or (or (or x3 x53) x152) x91) x155) (or x155 (or x7 (or (or x54 x61) x71)))) (and (and (or x90 (or (or (or x65 x139) x66) x55)) (or (or (or (or x51 x49) x141) x102) x90)) (and (and (or x105 (or (or (or x95 x20) x97) x118)) (or x105 (or (or x136 (or x32 x47)) x4))) (and (or (or (or (or x130 x150) x153) x68) x48) (or (or x11 (or x75 (or x13 x29))) x48))))))))))
(assert (not (and (and (= x123 (x159 x41 x6)) (and (= (x159 x41 x77) x77) (and (= (x159 x41 x123) x6) (and (and (= (x159 x6 x41) x123) (and (and (and (= (x159 x6 x123) x77) (and (and (and (and (= (x159 x77 x77) x78) (and (and (= (x159 x77 x78) x77) (and (= x77 (x159 x123 x41)) (and (= (x159 x123 x6) x41) (and (and (and (and (= (x159 x78 x41) x6) (and (= (x159 x78 x6) x77) (and (= x123 (x159 x78 x77)) (and (= x78 (x159 x78 x78)) (= x41 (x159 x78 x123)))))) (= x123 (x159 x123 x78))) (= x78 (x159 x123 x123))) (= x6 (x159 x123 x77)))))) (= x123 (x159 x77 x123)))) (= (x159 x77 x6) x6)) (= (x159 x77 x41) x41)) (= (x159 x6 x78) x6))) (= x41 (x159 x6 x77))) (= x78 (x159 x6 x6)))) (= x41 (x159 x41 x78)))))) (= x78 (x159 x41 x41)))))
(assert (and (and (and (and (or (= x41 (x159 x123 (x159 x123 x41))) (or (= x6 (x159 x123 (x159 x123 x6))) (or (or (= x78 (x159 x123 (x159 x123 x78))) (= x123 (x159 x123 (x159 x123 x123)))) (= x77 (x159 x123 (x159 x123 x77)))))) (or (= (x159 x78 (x159 x78 x41)) x41) (or (= (x159 x78 (x159 x78 x6)) x6) (or (or (= (x159 x78 (x159 x78 x78)) x78) (= x123 (x159 x78 (x159 x78 x123)))) (= (x159 x78 (x159 x78 x77)) x77))))) (or (or (= x6 (x159 x77 (x159 x77 x6))) (or (or (= (x159 x77 (x159 x77 x78)) x78) (= (x159 x77 (x159 x77 x123)) x123)) (= (x159 x77 (x159 x77 x77)) x77))) (= x41 (x159 x77 (x159 x77 x41))))) (or (= x41 (x159 x6 (x159 x6 x41))) (or (= (x159 x6 (x159 x6 x6)) x6) (or (or (= x78 (x159 x6 (x159 x6 x78))) (= x123 (x159 x6 (x159 x6 x123)))) (= x77 (x159 x6 (x159 x6 x77))))))) (or (= x41 (x159 x41 (x159 x41 x41))) (or (= (x159 x41 (x159 x41 x6)) x6) (or (= (x159 x41 (x159 x41 x77)) x77) (or (= (x159 x41 (x159 x41 x123)) x123) (= x78 (x159 x41 (x159 x41 x78)))))))))
(check-sat)
(exit)
